NAME          
ROWS
 N  OBJ
 L  c1
 L  c2
COLUMNS
    MARKER    'MARKER'                 'INTORG'
    x[1]      c1        257
    x[1]      c2        850
    x[1]      OBJ       -355
    x[2]      c1        368
    x[2]      c2        158
    x[2]      OBJ       -869
    x[3]      c1        667
    x[3]      c2        796
    x[3]      OBJ       -898
    x[4]      c1        157
    x[4]      c2        900
    x[4]      OBJ       -295
    x[5]      c1        909
    x[5]      c2        699
    x[5]      OBJ       -11
    x[6]      c1        23
    x[6]      c2        525
    x[6]      OBJ       -103
    x[7]      c1        426
    x[7]      c2        586
    x[7]      OBJ       -756
    x[8]      c1        666
    x[8]      c2        618
    x[8]      OBJ       -418
    x[9]      c1        959
    x[9]      c2        785
    x[9]      OBJ       -843
    x[10]     c1        108
    x[10]     c2        825
    x[10]     OBJ       -458
    x[11]     c1        1
    x[11]     c2        285
    x[11]     OBJ       -339
    x[12]     c1        163
    x[12]     c2        309
    x[12]     OBJ       -263
    x[13]     c1        987
    x[13]     c2        238
    x[13]     OBJ       -24
    x[14]     c1        529
    x[14]     c2        815
    x[14]     OBJ       -52
    x[15]     c1        58
    x[15]     c2        87
    x[15]     OBJ       -475
    x[16]     c1        911
    x[16]     c2        457
    x[16]     OBJ       -398
    x[17]     c1        885
    x[17]     c2        555
    x[17]     OBJ       -125
    x[18]     c1        602
    x[18]     c2        828
    x[18]     OBJ       -243
    x[19]     c1        476
    x[19]     c2        381
    x[19]     OBJ       -483
    x[20]     c1        434
    x[20]     c2        736
    x[20]     OBJ       -933
    x[21]     c1        672
    x[21]     c2        527
    x[21]     OBJ       -489
    x[22]     c1        687
    x[22]     c2        305
    x[22]     OBJ       -937
    x[23]     c1        915
    x[23]     c2        530
    x[23]     OBJ       -907
    x[24]     c1        360
    x[24]     c2        13
    x[24]     OBJ       -217
    x[25]     c1        773
    x[25]     c2        950
    x[25]     OBJ       -774
RHS
    rhs       c1        6496
    rhs       c2        6879
RANGES
BOUNDS
 LO bounds    x[1]      0
 PL bounds    x[1]
 LO bounds    x[2]      0
 PL bounds    x[2]
 LO bounds    x[3]      0
 PL bounds    x[3]
 LO bounds    x[4]      0
 PL bounds    x[4]
 LO bounds    x[5]      0
 PL bounds    x[5]
 LO bounds    x[6]      0
 PL bounds    x[6]
 LO bounds    x[7]      0
 PL bounds    x[7]
 LO bounds    x[8]      0
 PL bounds    x[8]
 LO bounds    x[9]      0
 PL bounds    x[9]
 LO bounds    x[10]     0
 PL bounds    x[10]
 LO bounds    x[11]     0
 PL bounds    x[11]
 LO bounds    x[12]     0
 PL bounds    x[12]
 LO bounds    x[13]     0
 PL bounds    x[13]
 LO bounds    x[14]     0
 PL bounds    x[14]
 LO bounds    x[15]     0
 PL bounds    x[15]
 LO bounds    x[16]     0
 PL bounds    x[16]
 LO bounds    x[17]     0
 PL bounds    x[17]
 LO bounds    x[18]     0
 PL bounds    x[18]
 LO bounds    x[19]     0
 PL bounds    x[19]
 LO bounds    x[20]     0
 PL bounds    x[20]
 LO bounds    x[21]     0
 PL bounds    x[21]
 LO bounds    x[22]     0
 PL bounds    x[22]
 LO bounds    x[23]     0
 PL bounds    x[23]
 LO bounds    x[24]     0
 PL bounds    x[24]
 LO bounds    x[25]     0
 PL bounds    x[25]
ENDATA
